\ENCODING=ISO-8859-1
\Problem name: inst_11_cut_n6

Maximize
 obj1: 5 x0 + 16 x1 + 8 x2 + 95 x3
Subject To
 c0:    64 x0 + x1 + 51 x2 + 84 x3 + s0 <= 289
 c1:    97 x0 + 46 x1 + 51 x2 + 10 x3 + s1 <= 74
 c2:    63 x0 + 79 x1 + 49 x2 + 32 x3 + s2 <= 256
 c3:    97 x0 + 84 x1 + 34 x2 + 69 x3 + s3 <= 296
 c4:    57 x0 + 88 x1 + 29 x2 + 34 x3 + s4 <= 66
 c5:    94 x0 + 79 x1 + 36 x2 + 46 x3 + s5 <= 103
 c6:    22 x0 + 34 x1 + 91 x2 + 68 x3 + s6 <= 48
 c7:    74 x0 + 15 x1 + 29 x2 + 93 x3 + s7 <= 59
 c8:    37 x0 + 22 x1 + 37 x2 + 61 x3 + s8 <= 74
 c9:    94 x0 + 84 x1 + 23 x2 + 94 x3 + s9 <= 57
 c10:   95 x0 + 76 x1 + 58 x2 + 48 x3 + s10 <= 181
 cut_1: 10 x0 + 8 x1 + 2 x2 + 10 x3 <= 5.99999999999999
 cut_2: 84 x0 + 75 x1 + 20 x2 + 84 x3 <= 50
 cut_3: 62 x0 + 55 x1 + 15 x2 + 62 x3 <= 37
 cut_4: 25 x0 + 22 x1 + 6 x2 + 25 x3 <= 15
 cut_5: 60 x0 + 53 x1 + 14 x2 + 60 x3 <= 36
 cut_6: 48 x0 + 42 x1 + 11 x2 + 48 x3 <= 29
Bounds
 0 <= x0 <= 1
 0 <= x1 <= 1
 0 <= x2 <= 1
 0 <= x3 <= 1
End
